119 48 011 1
1
477 113 1
384 114 1
350 115 1
390 116 1
365 117 1
437 118 1
355 119 1
426 108 1
365 109 1
396 110 1
388 111 1
434 112 1
385 113 1
507 114 1
355 115 1
366 116 1
485 117 1
356 118 1
288 119 1
291 108 1
428 109 1
450 110 1
371 111 1
367 112 1
515 113 1
346 114 1
316 115 1
393 116 1
460 117 1
521 118 1
454 119 1
479 108 1
417 109 1
397 110 1
329 111 1
311 112 1
344 113 1
322 114 1
391 115 1
346 116 1
419 117 1
354 118 1
404 119 1
368 108 1
609 109 1
422 110 1
439 111 1
379 112 1
1
1
1
1
1
1
1
1
1
1
1
1
1
1
1
1
1
1
1
1
1
1
1
1
1
1
1
1
1
1
1
1
1
1
1
1
1
1
1
1
1
1
1
1
1
1
1
1
1
1
1
1
1
1
1
1
1
1
1 9 425 21 290 33 478 45 367
1 10 364 22 427 34 416 46 608
1 11 395 23 449 35 396 47 421
1 12 387 24 370 36 328 48 438
1 13 433 25 366 37 310 49 378
1 2 476 14 384 26 514 38 343
1 3 383 15 506 27 345 39 321
1 4 349 16 354 28 315 40 390
1 5 389 17 365 29 392 41 345
1 6 364 18 484 30 459 42 418
1 7 436 19 355 31 520 43 353
1 8 354 20 287 32 453 44 403
